n_res = 4;
rcap = [17, 18, 97, 84];
rtype = [1, 1, 2, 2];
n_tasks = 16;
modes = [ {1}, {2}, {3}, {4}, {5}, {6}, {7}, {8}, {9}, {10}, {11}, {12}, {13}, {14}, {15}, {16} ];
succ = [ {5, 7, 10}, {6, 10, 14}, {4, 5, 11}, {6, 8, 13}, {14, 16}, {7, 9, 12}, {15}, {10}, {15}, {12}, {12, 13}, {15, 16}, {14, 16}, {}, {}, {} ];
n_opt = 16;
dur = [3, 7, 5, 5, 6, 7, 8, 9, 10, 6, 4, 7, 10, 9, 3, 1];
rreq = [|  0,  1,  2,  0,  1,  6,  0,  6,  0,  0,  7,  6, 10,  0,  0,  6
        |  9,  0,  0,  3,  0,  0,  5,  0,  9,  6,  0,  0,  0,  7,  6,  0
        |  9,  5,  4,  8,  6,  9,  7,  2,  6,  9,  8,  6,  6,  2,  6,  4
        |  6,  6,  4,  2,  1,  5,  9,  9,  2, 10,  2,  6, 10,  4,  4,  4 |];
